
(set-logic ALL) 

(declare-datatype MyList ((Nil) (Cons (head Real) (tail MyList)) )) 
(declare-fun l0 () MyList) 
(declare-fun l1 () MyList) 
(declare-fun l2 () MyList) 
(declare-fun l3 () MyList) 
(declare-fun i0 () Real) 
(declare-fun i1 () Real) 
(assert (not (= l2 Nil)) )
(assert (is-Cons Nil) )
(assert (or (= l2 l3) (= l1 Nil) (= l3 Nil) (= l0 Nil)) )
(assert (and (= l2 Nil) (is-Nil Nil) (= l1 Nil)) )
(assert (and (is-Nil l0) (is-Cons l2) (is-Nil Nil) (= l1 Nil)) )
(assert (= l2 Nil) )
(assert (= l1 l2) )
(assert (is-Cons l1) )
(check-sat)
